NAME: tsp_230
COMMENT: Random TSP instance
TYPE: TSP
DIMENSION: 50
EDGE_WEIGHT_TYPE: EUC_2D
NODE_COORD_SECTION
1 186 679
2 609 692
3 638 275
4 546 549
5 554 962
6 231 187
7 420 274
8 585 391
9 617 947
10 34 494
11 564 991
12 100 957
13 350 631
14 140 19
15 626 658
16 126 751
17 629 54
18 764 675
19 946 938
20 699 324
21 865 271
22 353 973
23 477 929
24 496 267
25 459 465
26 772 640
27 162 63
28 963 855
29 402 376
30 713 48
31 92 189
32 150 542
33 282 49
34 126 746
35 316 100
36 961 874
37 350 439
38 37 3
39 880 623
40 784 938
41 929 418
42 476 882
43 40 902
44 436 615
45 415 849
46 764 456
47 809 577
48 29 180
49 299 636
50 972 530
